\ENCODING=ISO-8859-1
\Problem name: IloCplex

Minimize
 obj1: 999999 x_0_0_0 + 38.0788655293195 x_0_0_1 + 39.3573373083089 x_0_0_2
       + 40.3112887414927 x_0_0_3 + 38.0788655293195 x_0_1_0 + 999999 x_0_1_1
       + 3 x_0_1_2 + 5 x_0_1_3 + 39.3573373083089 x_0_2_0 + 3 x_0_2_1
       + 999999 x_0_2_2 + 2 x_0_2_3 + 40.3112887414927 x_0_3_0 + 5 x_0_3_1
       + 2 x_0_3_2 + 999999 x_0_3_3 + 20
Subject To
 alguemSaiDoCliente(1)#0:        z_0_1 + y_0_1  = 1
 alguemSaiDoCliente(2)#1:        z_0_2 + y_0_2  = 1
 alguemSaiDoCliente(3)#2:        z_0_3 + y_0_3  = 1
 veiculo_origin_0#3:             z_0_1 + z_0_2 + z_0_3 + z_0_0 <= 4
 chegadaNoCliente_1_peloVehicle_0#4: x_0_0_1 + x_0_2_1 + x_0_3_1  = 1
 chegadaNoCliente_2_peloVehicle_0#5: x_0_0_2 + x_0_1_2 + x_0_3_2  = 1
 chegadaNoCliente_3_peloVehicle_0#6: x_0_0_3 + x_0_1_3 + x_0_2_3  = 1
 saidaDoCliente_0_peloVehicle_0#7: x_0_0_1 + x_0_0_2 + x_0_0_3 - z_0_0  = 0
 saidaDoCliente_1_peloVehicle_0#8: x_0_1_2 + x_0_1_3 - z_0_1  = 0
 saidaDoCliente_2_peloVehicle_0#9: x_0_2_1 + x_0_2_3 - z_0_2  = 0
 saidaDoCliente_3_peloVehicle_0#10: x_0_3_1 + x_0_3_2 - z_0_3  = 0
 veiculo_0_utilizado#11:         x_0_0_0 + x_0_0_1 + x_0_0_2 + x_0_0_3
                                 + x_0_1_0 + x_0_1_1 + x_0_1_2 + x_0_1_3
                                 + x_0_2_0 + x_0_2_1 + x_0_2_2 + x_0_2_3
                                 + x_0_3_0 + x_0_3_1 + x_0_3_2 + x_0_3_3 <= 4
 saida_Deposito#12:              x_0_0_1 + x_0_0_2 + x_0_0_3  = 1
 saida_Deposito2#13:             z_0_0  = 1
 retorno_Deposito#14:            x_0_1_0 + x_0_2_0 + x_0_3_0  = 0
 retorno_Deposito2#15:            = 0
 SumDrivers#16:                  >= 0
 GETOUT_0_0_1#17:                - 200 x_0_0_1 - u_0_1 + u_0_0 >= -200
 GETOUT_0_0_2#18:                - 200 x_0_0_2 + u_0_0 - u_0_2 >= -200
 GETOUT_0_0_3#19:                - 200 x_0_0_3 + u_0_0 - u_0_3 >= -200
 GETOUT_0_1_0#20:                - 200 x_0_1_0 + u_0_1 - u_0_0 >= -180
 GETOUT_0_1_2#21:                - 200 x_0_1_2 + u_0_1 - u_0_2 >= -180
 GETOUT_0_1_3#22:                - 200 x_0_1_3 + u_0_1 - u_0_3 >= -180
 GETOUT_0_2_0#23:                - 200 x_0_2_0 - u_0_0 + u_0_2 >= -190
 GETOUT_0_2_1#24:                - 200 x_0_2_1 - u_0_1 + u_0_2 >= -190
 GETOUT_0_2_3#25:                - 200 x_0_2_3 + u_0_2 - u_0_3 >= -190
 GETOUT_0_3_0#26:                - 200 x_0_3_0 - u_0_0 + u_0_3 >= -160
 GETOUT_0_3_1#27:                - 200 x_0_3_1 - u_0_1 + u_0_3 >= -160
 GETOUT_0_3_2#28:                - 200 x_0_3_2 - u_0_2 + u_0_3 >= -160
 fluxo_veiculo_0_da_entrega_1#29: z_0_1 + y_0_1  = 1
 fluxo_veiculo_0_da_entrega_2#30: z_0_2 + y_0_2  = 1
Bounds
      x_0_0_0 = 0
      x_0_0_1 = 1
      x_0_0_2 = 0
      x_0_0_3 = 0
      x_0_1_0 = 0
      x_0_1_1 = 0
      x_0_1_2 = 1
      x_0_1_3 = 0
 0 <= x_0_2_0 <= 1
      x_0_2_1 = 0
      x_0_2_2 = 0
 0 <= x_0_2_3 <= 1
 0 <= x_0_3_0 <= 1
      x_0_3_1 = 0
      x_0_3_2 = 0
      x_0_3_3 = 0
      z_0_1 = 1
      y_0_1 = 0
 0 <= z_0_2 <= 1
      y_0_2 = 0
 0 <= z_0_3 <= 1
 0 <= y_0_3 <= 1
      z_0_0 = 1
 0 <= u_0_1 <= 200
 0 <= u_0_0 <= 200
 0 <= u_0_2 <= 200
 0 <= u_0_3 <= 200
Binaries
 x_0_0_0  x_0_0_1  x_0_0_2  x_0_0_3  x_0_1_0  x_0_1_1  x_0_1_2  x_0_1_3 
 x_0_2_0  x_0_2_1  x_0_2_2  x_0_2_3  z_0_1  y_0_1  z_0_2  y_0_2  z_0_3  y_0_3 
 z_0_0 
End
